50, 721
11, 11
23, 23
46, 46
39, 39
15, 15
32, 32
29, 29
27, 27
26, 26
8, 8
18, 18
48, 48
36, 36
38, 38
44, 44
15, 15
26, 26
22, 22
19, 19
25, 25
12, 12
40, 40
39, 39
42, 42
38, 38
10, 10
44, 44
46, 46
47, 47
41, 41
38, 38
27, 27
4, 4
39, 39
14, 14
2, 2
50, 50
28, 28
30, 30
14, 14
19, 19
34, 34
20, 20
32, 32
44, 44
30, 30
36, 36
25, 25
8, 8
43, 43
